1 93 15 88 35 41 9 4 69 13 84 40 56 52 42 63 64 29 23 65 86 47 79 6 46 61 37 31 24 12 67 83 76 21 7 97 92 34 99 80 75 11 44 62 68 17 71 3 54 95 22 50 43 25 16 14 98 57 49 36 45 26 18 51 27 73 0 53 8 58 5 28 48 77 10 20 39 87 94 96 85 78 2 74 38 32 60 33 90 91 89 82 19 70 59 81 72 66 55 30 

